src/LKH/IO/anjos-70-03.tour
NAME : anjos-70-03.-182.tour
COMMENT : Length = -182
COMMENT : Found by LKH [Keld Helsgaun] Sun Apr 13 17:05:00 2025
TYPE : TOUR
DIMENSION : 70
TOUR_SECTION
1
41
37
29
38
60
35
66
31
47
44
34
33
46
57
14
23
24
18
26
20
50
11
68
59
52
19
13
2
17
15
28
43
53
27
6
63
8
22
16
69
30
32
12
62
49
48
9
10
4
40
67
58
36
45
3
64
5
42
54
7
56
25
55
39
65
61
70
21
51
-1
EOF
